<?xml version="1.0" encoding ="UTF-8" standalone="yes"?>
<Solution>
<SchedulingPeriodID>sprint_hidden09</SchedulingPeriodID>
<Competitor>TAK</Competitor>
	<Assignment>
		<Date>2010-06-01</Date>
<Employee>0</Employee>
<ShiftType>E</ShiftType>
	</Assignment>
	<Assignment>
		<Date>2010-06-02</Date>
<Employee>0</Employee>
<ShiftType>E</ShiftType>
	</Assignment>
	<Assignment>
		<Date>2010-06-03</Date>
<Employee>0</Employee>
<ShiftType>N</ShiftType>
	</Assignment>
	<Assignment>
		<Date>2010-06-04</Date>
<Employee>0</Employee>
<ShiftType>N</ShiftType>
	</Assignment>
	<Assignment>
		<Date>2010-06-05</Date>
<Employee>0</Employee>
<ShiftType>N</ShiftType>
	</Assignment>
	<Assignment>
		<Date>2010-06-06</Date>
<Employee>0</Employee>
<ShiftType>N</ShiftType>
	</Assignment>
	<Assignment>
		<Date>2010-06-11</Date>
<Employee>0</Employee>
<ShiftType>E</ShiftType>
	</Assignment>
	<Assignment>
		<Date>2010-06-12</Date>
<Employee>0</Employee>
<ShiftType>N</ShiftType>
	</Assignment>
	<Assignment>
		<Date>2010-06-13</Date>
<Employee>0</Employee>
<ShiftType>N</ShiftType>
	</Assignment>
	<Assignment>
		<Date>2010-06-14</Date>
<Employee>0</Employee>
<ShiftType>L</ShiftType>
	</Assignment>
	<Assignment>
		<Date>2010-06-15</Date>
<Employee>0</Employee>
<ShiftType>L</ShiftType>
	</Assignment>
	<Assignment>
		<Date>2010-06-19</Date>
<Employee>0</Employee>
<ShiftType>L</ShiftType>
	</Assignment>
	<Assignment>
		<Date>2010-06-20</Date>
<Employee>0</Employee>
<ShiftType>L</ShiftType>
	</Assignment>
	<Assignment>
		<Date>2010-06-21</Date>
<Employee>0</Employee>
<ShiftType>L</ShiftType>
	</Assignment>
	<Assignment>
		<Date>2010-06-22</Date>
<Employee>0</Employee>
<ShiftType>L</ShiftType>
	</Assignment>
	<Assignment>
		<Date>2010-06-26</Date>
<Employee>0</Employee>
<ShiftType>N</ShiftType>
	</Assignment>
	<Assignment>
		<Date>2010-06-27</Date>
<Employee>0</Employee>
<ShiftType>N</ShiftType>
	</Assignment>
	<Assignment>
		<Date>2010-06-28</Date>
<Employee>0</Employee>
<ShiftType>N</ShiftType>
	</Assignment>
	<Assignment>
		<Date>2010-06-01</Date>
<Employee>1</Employee>
<ShiftType>E</ShiftType>
	</Assignment>
	<Assignment>
		<Date>2010-06-02</Date>
<Employee>1</Employee>
<ShiftType>E</ShiftType>
	</Assignment>
	<Assignment>
		<Date>2010-06-03</Date>
<Employee>1</Employee>
<ShiftType>E</ShiftType>
	</Assignment>
	<Assignment>
		<Date>2010-06-04</Date>
<Employee>1</Employee>
<ShiftType>L</ShiftType>
	</Assignment>
	<Assignment>
		<Date>2010-06-05</Date>
<Employee>1</Employee>
<ShiftType>L</ShiftType>
	</Assignment>
	<Assignment>
		<Date>2010-06-06</Date>
<Employee>1</Employee>
<ShiftType>L</ShiftType>
	</Assignment>
	<Assignment>
		<Date>2010-06-10</Date>
<Employee>1</Employee>
<ShiftType>E</ShiftType>
	</Assignment>
	<Assignment>
		<Date>2010-06-11</Date>
<Employee>1</Employee>
<ShiftType>E</ShiftType>
	</Assignment>
	<Assignment>
		<Date>2010-06-12</Date>
<Employee>1</Employee>
<ShiftType>E</ShiftType>
	</Assignment>
	<Assignment>
		<Date>2010-06-13</Date>
<Employee>1</Employee>
<ShiftType>E</ShiftType>
	</Assignment>
	<Assignment>
		<Date>2010-06-17</Date>
<Employee>1</Employee>
<ShiftType>E</ShiftType>
	</Assignment>
	<Assignment>
		<Date>2010-06-18</Date>
<Employee>1</Employee>
<ShiftType>D</ShiftType>
	</Assignment>
	<Assignment>
		<Date>2010-06-19</Date>
<Employee>1</Employee>
<ShiftType>L</ShiftType>
	</Assignment>
	<Assignment>
		<Date>2010-06-20</Date>
<Employee>1</Employee>
<ShiftType>L</ShiftType>
	</Assignment>
	<Assignment>
		<Date>2010-06-21</Date>
<Employee>1</Employee>
<ShiftType>L</ShiftType>
	</Assignment>
	<Assignment>
		<Date>2010-06-25</Date>
<Employee>1</Employee>
<ShiftType>E</ShiftType>
	</Assignment>
	<Assignment>
		<Date>2010-06-26</Date>
<Employee>1</Employee>
<ShiftType>E</ShiftType>
	</Assignment>
	<Assignment>
		<Date>2010-06-27</Date>
<Employee>1</Employee>
<ShiftType>E</ShiftType>
	</Assignment>
	<Assignment>
		<Date>2010-06-28</Date>
<Employee>1</Employee>
<ShiftType>E</ShiftType>
	</Assignment>
	<Assignment>
		<Date>2010-06-01</Date>
<Employee>2</Employee>
<ShiftType>N</ShiftType>
	</Assignment>
	<Assignment>
		<Date>2010-06-02</Date>
<Employee>2</Employee>
<ShiftType>N</ShiftType>
	</Assignment>
	<Assignment>
		<Date>2010-06-03</Date>
<Employee>2</Employee>
<ShiftType>L</ShiftType>
	</Assignment>
	<Assignment>
		<Date>2010-06-04</Date>
<Employee>2</Employee>
<ShiftType>L</ShiftType>
	</Assignment>
	<Assignment>
		<Date>2010-06-08</Date>
<Employee>2</Employee>
<ShiftType>E</ShiftType>
	</Assignment>
	<Assignment>
		<Date>2010-06-09</Date>
<Employee>2</Employee>
<ShiftType>E</ShiftType>
	</Assignment>
	<Assignment>
		<Date>2010-06-10</Date>
<Employee>2</Employee>
<ShiftType>E</ShiftType>
	</Assignment>
	<Assignment>
		<Date>2010-06-11</Date>
<Employee>2</Employee>
<ShiftType>D</ShiftType>
	</Assignment>
	<Assignment>
		<Date>2010-06-12</Date>
<Employee>2</Employee>
<ShiftType>L</ShiftType>
	</Assignment>
	<Assignment>
		<Date>2010-06-13</Date>
<Employee>2</Employee>
<ShiftType>L</ShiftType>
	</Assignment>
	<Assignment>
		<Date>2010-06-17</Date>
<Employee>2</Employee>
<ShiftType>D</ShiftType>
	</Assignment>
	<Assignment>
		<Date>2010-06-18</Date>
<Employee>2</Employee>
<ShiftType>E</ShiftType>
	</Assignment>
	<Assignment>
		<Date>2010-06-19</Date>
<Employee>2</Employee>
<ShiftType>E</ShiftType>
	</Assignment>
	<Assignment>
		<Date>2010-06-20</Date>
<Employee>2</Employee>
<ShiftType>E</ShiftType>
	</Assignment>
	<Assignment>
		<Date>2010-06-24</Date>
<Employee>2</Employee>
<ShiftType>E</ShiftType>
	</Assignment>
	<Assignment>
		<Date>2010-06-25</Date>
<Employee>2</Employee>
<ShiftType>D</ShiftType>
	</Assignment>
	<Assignment>
		<Date>2010-06-26</Date>
<Employee>2</Employee>
<ShiftType>L</ShiftType>
	</Assignment>
	<Assignment>
		<Date>2010-06-27</Date>
<Employee>2</Employee>
<ShiftType>L</ShiftType>
	</Assignment>
	<Assignment>
		<Date>2010-06-28</Date>
<Employee>2</Employee>
<ShiftType>L</ShiftType>
	</Assignment>
	<Assignment>
		<Date>2010-06-04</Date>
<Employee>3</Employee>
<ShiftType>E</ShiftType>
	</Assignment>
	<Assignment>
		<Date>2010-06-05</Date>
<Employee>3</Employee>
<ShiftType>E</ShiftType>
	</Assignment>
	<Assignment>
		<Date>2010-06-06</Date>
<Employee>3</Employee>
<ShiftType>E</ShiftType>
	</Assignment>
	<Assignment>
		<Date>2010-06-07</Date>
<Employee>3</Employee>
<ShiftType>N</ShiftType>
	</Assignment>
	<Assignment>
		<Date>2010-06-08</Date>
<Employee>3</Employee>
<ShiftType>N</ShiftType>
	</Assignment>
	<Assignment>
		<Date>2010-06-12</Date>
<Employee>3</Employee>
<ShiftType>E</ShiftType>
	</Assignment>
	<Assignment>
		<Date>2010-06-13</Date>
<Employee>3</Employee>
<ShiftType>E</ShiftType>
	</Assignment>
	<Assignment>
		<Date>2010-06-14</Date>
<Employee>3</Employee>
<ShiftType>N</ShiftType>
	</Assignment>
	<Assignment>
		<Date>2010-06-15</Date>
<Employee>3</Employee>
<ShiftType>N</ShiftType>
	</Assignment>
	<Assignment>
		<Date>2010-06-16</Date>
<Employee>3</Employee>
<ShiftType>N</ShiftType>
	</Assignment>
	<Assignment>
		<Date>2010-06-21</Date>
<Employee>3</Employee>
<ShiftType>E</ShiftType>
	</Assignment>
	<Assignment>
		<Date>2010-06-22</Date>
<Employee>3</Employee>
<ShiftType>E</ShiftType>
	</Assignment>
	<Assignment>
		<Date>2010-06-23</Date>
<Employee>3</Employee>
<ShiftType>N</ShiftType>
	</Assignment>
	<Assignment>
		<Date>2010-06-26</Date>
<Employee>3</Employee>
<ShiftType>E</ShiftType>
	</Assignment>
	<Assignment>
		<Date>2010-06-27</Date>
<Employee>3</Employee>
<ShiftType>E</ShiftType>
	</Assignment>
	<Assignment>
		<Date>2010-06-28</Date>
<Employee>3</Employee>
<ShiftType>E</ShiftType>
	</Assignment>
	<Assignment>
		<Date>2010-06-01</Date>
<Employee>4</Employee>
<ShiftType>D</ShiftType>
	</Assignment>
	<Assignment>
		<Date>2010-06-02</Date>
<Employee>4</Employee>
<ShiftType>E</ShiftType>
	</Assignment>
	<Assignment>
		<Date>2010-06-03</Date>
<Employee>4</Employee>
<ShiftType>E</ShiftType>
	</Assignment>
	<Assignment>
		<Date>2010-06-07</Date>
<Employee>4</Employee>
<ShiftType>E</ShiftType>
	</Assignment>
	<Assignment>
		<Date>2010-06-08</Date>
<Employee>4</Employee>
<ShiftType>E</ShiftType>
	</Assignment>
	<Assignment>
		<Date>2010-06-09</Date>
<Employee>4</Employee>
<ShiftType>E</ShiftType>
	</Assignment>
	<Assignment>
		<Date>2010-06-10</Date>
<Employee>4</Employee>
<ShiftType>D</ShiftType>
	</Assignment>
	<Assignment>
		<Date>2010-06-14</Date>
<Employee>4</Employee>
<ShiftType>E</ShiftType>
	</Assignment>
	<Assignment>
		<Date>2010-06-15</Date>
<Employee>4</Employee>
<ShiftType>D</ShiftType>
	</Assignment>
	<Assignment>
		<Date>2010-06-16</Date>
<Employee>4</Employee>
<ShiftType>E</ShiftType>
	</Assignment>
	<Assignment>
		<Date>2010-06-17</Date>
<Employee>4</Employee>
<ShiftType>N</ShiftType>
	</Assignment>
	<Assignment>
		<Date>2010-06-18</Date>
<Employee>4</Employee>
<ShiftType>L</ShiftType>
	</Assignment>
	<Assignment>
		<Date>2010-06-22</Date>
<Employee>4</Employee>
<ShiftType>L</ShiftType>
	</Assignment>
	<Assignment>
		<Date>2010-06-23</Date>
<Employee>4</Employee>
<ShiftType>L</ShiftType>
	</Assignment>
	<Assignment>
		<Date>2010-06-24</Date>
<Employee>4</Employee>
<ShiftType>L</ShiftType>
	</Assignment>
	<Assignment>
		<Date>2010-06-25</Date>
<Employee>4</Employee>
<ShiftType>L</ShiftType>
	</Assignment>
	<Assignment>
		<Date>2010-06-26</Date>
<Employee>4</Employee>
<ShiftType>L</ShiftType>
	</Assignment>
	<Assignment>
		<Date>2010-06-27</Date>
<Employee>4</Employee>
<ShiftType>L</ShiftType>
	</Assignment>
	<Assignment>
		<Date>2010-06-28</Date>
<Employee>4</Employee>
<ShiftType>L</ShiftType>
	</Assignment>
	<Assignment>
		<Date>2010-06-01</Date>
<Employee>5</Employee>
<ShiftType>L</ShiftType>
	</Assignment>
	<Assignment>
		<Date>2010-06-02</Date>
<Employee>5</Employee>
<ShiftType>L</ShiftType>
	</Assignment>
	<Assignment>
		<Date>2010-06-03</Date>
<Employee>5</Employee>
<ShiftType>L</ShiftType>
	</Assignment>
	<Assignment>
		<Date>2010-06-07</Date>
<Employee>5</Employee>
<ShiftType>D</ShiftType>
	</Assignment>
	<Assignment>
		<Date>2010-06-08</Date>
<Employee>5</Employee>
<ShiftType>D</ShiftType>
	</Assignment>
	<Assignment>
		<Date>2010-06-09</Date>
<Employee>5</Employee>
<ShiftType>L</ShiftType>
	</Assignment>
	<Assignment>
		<Date>2010-06-10</Date>
<Employee>5</Employee>
<ShiftType>L</ShiftType>
	</Assignment>
	<Assignment>
		<Date>2010-06-11</Date>
<Employee>5</Employee>
<ShiftType>L</ShiftType>
	</Assignment>
	<Assignment>
		<Date>2010-06-14</Date>
<Employee>5</Employee>
<ShiftType>E</ShiftType>
	</Assignment>
	<Assignment>
		<Date>2010-06-15</Date>
<Employee>5</Employee>
<ShiftType>E</ShiftType>
	</Assignment>
	<Assignment>
		<Date>2010-06-16</Date>
<Employee>5</Employee>
<ShiftType>E</ShiftType>
	</Assignment>
	<Assignment>
		<Date>2010-06-17</Date>
<Employee>5</Employee>
<ShiftType>L</ShiftType>
	</Assignment>
	<Assignment>
		<Date>2010-06-18</Date>
<Employee>5</Employee>
<ShiftType>L</ShiftType>
	</Assignment>
	<Assignment>
		<Date>2010-06-21</Date>
<Employee>5</Employee>
<ShiftType>N</ShiftType>
	</Assignment>
	<Assignment>
		<Date>2010-06-22</Date>
<Employee>5</Employee>
<ShiftType>N</ShiftType>
	</Assignment>
	<Assignment>
		<Date>2010-06-23</Date>
<Employee>5</Employee>
<ShiftType>L</ShiftType>
	</Assignment>
	<Assignment>
		<Date>2010-06-24</Date>
<Employee>5</Employee>
<ShiftType>L</ShiftType>
	</Assignment>
	<Assignment>
		<Date>2010-06-04</Date>
<Employee>6</Employee>
<ShiftType>D</ShiftType>
	</Assignment>
	<Assignment>
		<Date>2010-06-05</Date>
<Employee>6</Employee>
<ShiftType>L</ShiftType>
	</Assignment>
	<Assignment>
		<Date>2010-06-06</Date>
<Employee>6</Employee>
<ShiftType>L</ShiftType>
	</Assignment>
	<Assignment>
		<Date>2010-06-07</Date>
<Employee>6</Employee>
<ShiftType>L</ShiftType>
	</Assignment>
	<Assignment>
		<Date>2010-06-08</Date>
<Employee>6</Employee>
<ShiftType>L</ShiftType>
	</Assignment>
	<Assignment>
		<Date>2010-06-12</Date>
<Employee>6</Employee>
<ShiftType>E</ShiftType>
	</Assignment>
	<Assignment>
		<Date>2010-06-13</Date>
<Employee>6</Employee>
<ShiftType>E</ShiftType>
	</Assignment>
	<Assignment>
		<Date>2010-06-16</Date>
<Employee>6</Employee>
<ShiftType>E</ShiftType>
	</Assignment>
	<Assignment>
		<Date>2010-06-17</Date>
<Employee>6</Employee>
<ShiftType>L</ShiftType>
	</Assignment>
	<Assignment>
		<Date>2010-06-21</Date>
<Employee>6</Employee>
<ShiftType>D</ShiftType>
	</Assignment>
	<Assignment>
		<Date>2010-06-22</Date>
<Employee>6</Employee>
<ShiftType>E</ShiftType>
	</Assignment>
	<Assignment>
		<Date>2010-06-23</Date>
<Employee>6</Employee>
<ShiftType>E</ShiftType>
	</Assignment>
	<Assignment>
		<Date>2010-06-24</Date>
<Employee>6</Employee>
<ShiftType>D</ShiftType>
	</Assignment>
	<Assignment>
		<Date>2010-06-25</Date>
<Employee>6</Employee>
<ShiftType>L</ShiftType>
	</Assignment>
	<Assignment>
		<Date>2010-06-01</Date>
<Employee>7</Employee>
<ShiftType>L</ShiftType>
	</Assignment>
	<Assignment>
		<Date>2010-06-02</Date>
<Employee>7</Employee>
<ShiftType>L</ShiftType>
	</Assignment>
	<Assignment>
		<Date>2010-06-05</Date>
<Employee>7</Employee>
<ShiftType>E</ShiftType>
	</Assignment>
	<Assignment>
		<Date>2010-06-06</Date>
<Employee>7</Employee>
<ShiftType>E</ShiftType>
	</Assignment>
	<Assignment>
		<Date>2010-06-09</Date>
<Employee>7</Employee>
<ShiftType>N</ShiftType>
	</Assignment>
	<Assignment>
		<Date>2010-06-10</Date>
<Employee>7</Employee>
<ShiftType>N</ShiftType>
	</Assignment>
	<Assignment>
		<Date>2010-06-11</Date>
<Employee>7</Employee>
<ShiftType>N</ShiftType>
	</Assignment>
	<Assignment>
		<Date>2010-06-12</Date>
<Employee>7</Employee>
<ShiftType>L</ShiftType>
	</Assignment>
	<Assignment>
		<Date>2010-06-13</Date>
<Employee>7</Employee>
<ShiftType>L</ShiftType>
	</Assignment>
	<Assignment>
		<Date>2010-06-17</Date>
<Employee>7</Employee>
<ShiftType>E</ShiftType>
	</Assignment>
	<Assignment>
		<Date>2010-06-18</Date>
<Employee>7</Employee>
<ShiftType>N</ShiftType>
	</Assignment>
	<Assignment>
		<Date>2010-06-19</Date>
<Employee>7</Employee>
<ShiftType>N</ShiftType>
	</Assignment>
	<Assignment>
		<Date>2010-06-20</Date>
<Employee>7</Employee>
<ShiftType>N</ShiftType>
	</Assignment>
	<Assignment>
		<Date>2010-06-24</Date>
<Employee>7</Employee>
<ShiftType>E</ShiftType>
	</Assignment>
	<Assignment>
		<Date>2010-06-25</Date>
<Employee>7</Employee>
<ShiftType>E</ShiftType>
	</Assignment>
	<Assignment>
		<Date>2010-06-03</Date>
<Employee>8</Employee>
<ShiftType>D</ShiftType>
	</Assignment>
	<Assignment>
		<Date>2010-06-04</Date>
<Employee>8</Employee>
<ShiftType>E</ShiftType>
	</Assignment>
	<Assignment>
		<Date>2010-06-07</Date>
<Employee>8</Employee>
<ShiftType>E</ShiftType>
	</Assignment>
	<Assignment>
		<Date>2010-06-08</Date>
<Employee>8</Employee>
<ShiftType>L</ShiftType>
	</Assignment>
	<Assignment>
		<Date>2010-06-09</Date>
<Employee>8</Employee>
<ShiftType>L</ShiftType>
	</Assignment>
	<Assignment>
		<Date>2010-06-14</Date>
<Employee>8</Employee>
<ShiftType>L</ShiftType>
	</Assignment>
	<Assignment>
		<Date>2010-06-15</Date>
<Employee>8</Employee>
<ShiftType>L</ShiftType>
	</Assignment>
	<Assignment>
		<Date>2010-06-16</Date>
<Employee>8</Employee>
<ShiftType>L</ShiftType>
	</Assignment>
	<Assignment>
		<Date>2010-06-19</Date>
<Employee>8</Employee>
<ShiftType>E</ShiftType>
	</Assignment>
	<Assignment>
		<Date>2010-06-20</Date>
<Employee>8</Employee>
<ShiftType>E</ShiftType>
	</Assignment>
	<Assignment>
		<Date>2010-06-21</Date>
<Employee>8</Employee>
<ShiftType>E</ShiftType>
	</Assignment>
	<Assignment>
		<Date>2010-06-22</Date>
<Employee>8</Employee>
<ShiftType>D</ShiftType>
	</Assignment>
	<Assignment>
		<Date>2010-06-23</Date>
<Employee>8</Employee>
<ShiftType>E</ShiftType>
	</Assignment>
	<Assignment>
		<Date>2010-06-26</Date>
<Employee>8</Employee>
<ShiftType>E</ShiftType>
	</Assignment>
	<Assignment>
		<Date>2010-06-27</Date>
<Employee>8</Employee>
<ShiftType>E</ShiftType>
	</Assignment>
	<Assignment>
		<Date>2010-06-28</Date>
<Employee>8</Employee>
<ShiftType>D</ShiftType>
	</Assignment>
	<Assignment>
		<Date>2010-06-05</Date>
<Employee>9</Employee>
<ShiftType>E</ShiftType>
	</Assignment>
	<Assignment>
		<Date>2010-06-06</Date>
<Employee>9</Employee>
<ShiftType>E</ShiftType>
	</Assignment>
	<Assignment>
		<Date>2010-06-07</Date>
<Employee>9</Employee>
<ShiftType>L</ShiftType>
	</Assignment>
	<Assignment>
		<Date>2010-06-09</Date>
<Employee>9</Employee>
<ShiftType>E</ShiftType>
	</Assignment>
	<Assignment>
		<Date>2010-06-10</Date>
<Employee>9</Employee>
<ShiftType>L</ShiftType>
	</Assignment>
	<Assignment>
		<Date>2010-06-11</Date>
<Employee>9</Employee>
<ShiftType>L</ShiftType>
	</Assignment>
	<Assignment>
		<Date>2010-06-14</Date>
<Employee>9</Employee>
<ShiftType>D</ShiftType>
	</Assignment>
	<Assignment>
		<Date>2010-06-15</Date>
<Employee>9</Employee>
<ShiftType>E</ShiftType>
	</Assignment>
	<Assignment>
		<Date>2010-06-16</Date>
<Employee>9</Employee>
<ShiftType>L</ShiftType>
	</Assignment>
	<Assignment>
		<Date>2010-06-18</Date>
<Employee>9</Employee>
<ShiftType>E</ShiftType>
	</Assignment>
	<Assignment>
		<Date>2010-06-19</Date>
<Employee>9</Employee>
<ShiftType>E</ShiftType>
	</Assignment>
	<Assignment>
		<Date>2010-06-20</Date>
<Employee>9</Employee>
<ShiftType>E</ShiftType>
	</Assignment>
	<Assignment>
		<Date>2010-06-23</Date>
<Employee>9</Employee>
<ShiftType>E</ShiftType>
	</Assignment>
	<Assignment>
		<Date>2010-06-24</Date>
<Employee>9</Employee>
<ShiftType>N</ShiftType>
	</Assignment>
	<Assignment>
		<Date>2010-06-25</Date>
<Employee>9</Employee>
<ShiftType>N</ShiftType>
	</Assignment>
</Solution>
